(set-logic QF_S)
(declare-fun var0 () String)
(assert (str.in.re var0 (re.++ (re.union (re.union (str.to.re "00") (str.to.re "111")) (re.union (str.to.re "2") (str.to.re "333"))) (re.++ (re.union (re.+ (str.to.re "4")) (re.+ (str.to.re "555"))) (re.++ (re.* (re.union (str.to.re "6") (str.to.re "777"))) (re.++ (re.* (re.* (str.to.re "8"))) (re.++ (re.* (re.+ (str.to.re "99"))) (re.++ (re.union (re.* (str.to.re "aaa")) (re.* (str.to.re "b"))) (re.++ (re.union (re.+ (str.to.re "c")) (re.+ (str.to.re "dd"))) (re.++ (re.* (re.* (str.to.re "ee"))) (re.++ (re.union (re.* (str.to.re "f")) (re.* (str.to.re "ggg"))) (re.+ (re.+ (str.to.re "hhh"))))))))))))))
(assert (<= 251 (str.len var0)))
(check-sat)